\ Model qp
\ LP format - for model browsing. Use MPS format to capture full model detail.
Minimize
  0 a01 + 0 a02 + 0 a03 + 0 a10 + 0 a11 + 0 a12 + 0 a13 + 0 a20 + 0 a21
   + 0 a22 + 0 a30 + 0 a31 + 0 a32 + [ 2 tau1 ^2 + 2 tau2 ^2 + 2 tau3 ^2
   + 2000 a00 ^2 ] / 2 
Subject To
 R15630: - tau1 >= 0
 R15631: tau1 >= 0
 R15632: - tau2 >= 0
 R15633: tau2 >= 0
 R15634: - 271.3095922280465 tau1 + 37.67509327979674 tau2
   - 0.1061015602831648 a40 - 12.81756282424671 a41 >= -1.737687001229102
Bounds
 -1.184067 <= tau1 <= 1.184067
 -1.184067 <= tau2 <= 1.184067
 -13.9302 <= tau3 <= 13.9302
 a00 <= 1e+06
 1 <= a01 <= 10000
 1 <= a02 <= 100
 a03 = 1
 a10 <= 1e+06
 1 <= a11 <= 10000
 1 <= a12 <= 100
 a13 = 1
 a20 <= 1
 a21 = 1
 a22 = 1
 a30 <= 1
 a31 = 1
 a32 = 1
 a40 <= 1e+06
 1 <= a41 <= 10000
End
